c ====================[ Coprocessor 7.1.0                    v7.1.0-dirty ]================================
c | Norbert Manthey. The use of the tool is limited to research only!                                     |
c | Contributors:                                                                                         |
c |     Kilian Gebhard                                                                                    |
c |     Lucas Kahlert, Franziska Krüger, Aaron Stephan                                                    |
c ============================[ Problem Statistics ]=======================================================
c |                                                                                                       |
c |  Number of variables:           200                                                                  |
c |  Number of clauses:            1100                                                                   |
c |  Parse time:                   0.00 s                                                                 |
c [STAT] CP3 0.011723 s-ppTime, 0 s-ipTime, 0.0117224 s-ppwTime, 0 s-ipwTime, 9 MB, ok 0.000438 s-ohTime, 
c [STAT] CP3(2) 1865 cls, 0 learnts, -765 rem-cls, 0 rem-learnts, 
c [STAT] UP 9e-06 s, 0 units, 0 cls, 0 lits
c [STAT] SuSi(1) 0.000335 s, 3 cls,  with 11 lits, 1 strengthed 
c [STAT] SuSi(2) 11711 subs-steps, 14554 strenght-steps, 0 increases, 0.000498s strengthening 
c [STAT] EE 0.001385 s, 0 steps 0 ee-lits 0 removedCls, 0 removedSubCls,
c [STAT] EE-gate 0.000115 s, 0 steps, 0.001106 extractGateTime, 
c [STAT] BVE(1) 0.000839 s, 0.000181 s spent on subsimp, 28 vars tested, 28 anticipations, 348 vars skipped, 2342 checks, 
c [STAT] BVE(2) 379 rem cls, with 1168 lits, 0 learnts rem, with 0 lits, 1147 new cls, with 4709 lits, 0 new learnts, with 0 lits, 
c [STAT] BVE(3) 28 vars eliminated, 0 units enqueued, 0 BC removed, with 0 lits, 0 blocked learnts removed, with 0 lits, 
c [STAT] BVE(4) 0 gateDefs, 0 usedGates, 0 gateSeconds, 
c [STAT] BVE(5) 27 incElims, 0 keepElims, 1 decElims, 768 totalAdds,
c [STAT] UNHIDE 0.000927 s, 0 cls, 0 totalLits, 0 lits 
c [STAT] UNHIDE(2) 7e-06 prSecs, 15 prSteps, 0 L1units, 0 L2units, 0 L3units, 0 L4units, 0 L5units, 
c [STAT] UNHIDE(3) 0 EE-checks, 0 EE-cands, 0 EEs 
c [STAT] XOR 0.000989s, 0.000937 parse-s, 4e-05 reason-s, 
c [STAT] XOR(2) 0 xors, 0 subXors, 0 resXors, 0 clauses, 0 resClauses, 0 resTauts, 0 resStrength, 2960 findChecks, 
c [STAT] XOR(3) 0 steps, 400 empties, 0 listUnits, 0 useLists, 0 xorUnits, 0 eqs, 
c [STAT] XOR(4) 1861 participating, 0.828584 ratio, 0 simDecisions, 0 xorProps, 0 clsProps, 
c [STAT] BCE 0.001634 seconds, 14154 steps, 688 testLits, 0 remBCE, 0 BCMs, 0 BCMcands, 0 BCMlits, 
c [STAT] CLE 0 remCLE, 0 cleUnits, 
c [STAT] BCE-CLA 0 seconds, 0 steps, 0 testLits, 0 extClss, 0 extLits, 0 possibles, 
c [STAT] FM 0.004398 s, 0.000104 amo-s, 0.005037 fm-s, 0.000676 amt-s, 0 amos, 0 amts, 0 sameUnits, 0 deducedUnits, 0 propUnits, 0 cls, 0 steps, 17832 searchSteps, 0 addDups, 
c [STAT] FM(2) 0 irregulars, 0 pureAmoLits, 0 diff, 0 discards, 0 addedCs, 0 removedCs, 0 newAmos, 0 discardedNewAmos, 
c [STAT] FM(3) 0 newAmoBinCls, 0 newCls, 0 newAlos, 0 newAlks, 0 duplicates, 0 garbageCollecst, 
c [STAT] FM(4) 1e-05 2PrdTime, 0 2PrAmos, 0 2PrLits, 3e-06 dedAloTime, 0 dedAlos, 
c [STAT] FM(5) time: 0.003483 s,steps: 20646 cards: 0 failed: 2962 extLits: 0 redDegree: 0 probes: 3778 conflictProbes: 2 savedPreCls: 0 savedPostCls: 0 units: 9472
c [STAT] DENSE 28 gaps
c |  Simplification time:          0.01 s                                                                 |
c |                                                                                                       |
c ==============================[ Writing DIMACS ]=========================================================
c =============================[ Writing Undo Info ]=======================================================
c write undo for 228 clauses and 0 units
c preprocessed 0 seconds
c starting sparrow solver
c Instance name       :  /home/lorenz/SAT2018/s2r_bin/tmp/cp_tmpCNF_47079
c Number of variables :  172
c Number of literals  :  344
c Number of Clauses   :  1865
c MaxNumOccurences    :  82
c MaxClauseSize       :  5
c MinClauseSize       :  2
c Ratio               :  10.8430
c Parameter setting   :  5 SAT

c Sparrow 2014 Parameteres: 
c c1                  : 2.8500
c c2                  : 4
c c3                  : 75000
c smoothing prob.     : 1.000
c seed                : 0
c XOR implementation  : yes
c using:              : random clause selection
c maxTries            : 9223372036854775807
c maxFlips            : 500000000
c timeout             : 900sec
c luby restarts       : yes
c luby base           : 262144
c keep assignement    : yes
c sp sequence:        : 0.000, 0.100, 0.600, 1.000, 0.900, 0.600, 0.800, 0.600, 0.000, 
c -->Starting solver  : 

c EndStatistics:
c numFlips                      : 1247     
c numProbWalks                  : 253       (20.29%) 
c gradientWalks                 : 994       (79.71%) 
c numSmooth                     : 0         (0.00%) 
c numWeight                     : 252       (20.21%) 
c Try CPU Time                  : 0.000   
c totalTries                    : 0        
c totalFlips                    : 1246     
c flips/sec                     : inf     
c Total CPU Time                : 0.000   sec
c solved 0 seconds
c parse model from /home/lorenz/SAT2018/s2r_bin/tmp/cp_model_47079
c opened var map /home/lorenz/SAT2018/s2r_bin/tmp/cp_undo_47079.map for reading ... 
c pp-time: 0 SLS-time: 0  CDCL-time: 0
c solved with: sparrow
 c
c SparrowToRiss 2018
c Adrian Balint, Norbert Manthey
c
c undo: /home/lorenz/SAT2018/s2r_bin/tmp/cp_undo_47079 tmpCNF: /home/lorenz/SAT2018/s2r_bin/tmp/cp_tmpCNF_47079 model: /home/lorenz/SAT2018/s2r_bin/tmp/cp_model_47079 realModel: /home/lorenz/SAT2018/s2r_bin/tmp/model_47079
c preprocessed 0 seconds with exit code 0
c not solved by preprocessor -- do search
c post-process with coprocessor
c verify model ...
s SATISFIABLE
v 1 -2 -3 -4 -5 -6 -7 -8 -9 -10 -11 -12 -13 14 15 -16 17 -18 19 20 21 22 23 -24 -25 26 27 28 29 -30 31 -32 -33 -34 35 36 -37 38 39 -40 -41 -42 -43 -44 -45 -46 47 48 49 -50 51 52 -53 -54 55 56 57 58 -59 60 -61 62 63 64 -65 66 67 68 69 -70 -71 72 -73 -74 75 -76 -77 78 79 80 -81 82 83 84 -85 86 87 -88 89 90 -91 -92 -93 -94 95 -96 97 98 -99 100 101 102 103 104 105 -106 107 108 109 110 -111 112 -113 114 -115 116 117 -118 119 120 121 -122 123 -124 -125 126 -127 128 129 130 131 -132 -133 134 135 136 -137 138 139 -140 -141 -142 143 144 -145 146 147 -148 -149 -150 -151 -152 153 154 155 156 -157 -158 -159 160 -161 162 163 164 -165 166 167 -168 169 -170 171 172 -173 174 -175 -176 177 178 -179 180 181 182 -183 -184 185 186 187 188 189 190 191 192 193 194 195 196 -197 -198 199 200 0

